(set-logic QF_S)
(declare-fun var0 () Int)
(declare-fun var1 () String)
(declare-fun var2 () Int)
(declare-fun var3 () String)
(declare-fun var4 () String)
(declare-fun var5 () String)
(declare-fun var6 () Int)
(declare-fun var7 () Int)
(assert (str.contains (str.at "7dS)l" var0) (str.at var1 var2)))
(assert (> (str.len var3) (str.to.int var4)))
(assert (str.prefixof (str.at (str.replace var5 var4 var5) (str.to.int var1)) (str.at var3 var6)))
(assert (str.prefixof (str.at (str.substr var3 var7 var6) (str.to.int var4)) (str.substr (str.at var1 var0) (str.len var1) (str.indexof var5 var4 var0))))
(check-sat)